feasible solution found by trivial heuristic after 3.2 seconds, objective value -1.058550e+04
presolving:
(round 1, fast)       5766 del vars, 1594 del conss, 0 add conss, 21047 chg bounds, 0 chg sides, 0 chg coeffs, 0 upgd conss, 0 impls, 562 clqs
(round 2, fast)       909141 del vars, 6563 del conss, 0 add conss, 924422 chg bounds, 0 chg sides, 0 chg coeffs, 0 upgd conss, 0 impls, 562 clqs
(round 3, fast)       910266 del vars, 7688 del conss, 0 add conss, 924422 chg bounds, 0 chg sides, 0 chg coeffs, 0 upgd conss, 0 impls, 562 clqs
   (8.0s) running MILP presolver
   (8.1s) MILP presolver found nothing
(round 4, exhaustive) 910266 del vars, 7688 del conss, 0 add conss, 924422 chg bounds, 0 chg sides, 0 chg coeffs, 563 upgd conss, 0 impls, 562 clqs
   (8.5s) probing: 51/1125 (4.5%) - 0 fixings, 0 aggregations, 0 implications, 0 bound changes
   (8.5s) probing aborted: 50/50 successive totally useless probings
   (8.7s) symmetry computation started: requiring (bin +, int -, cont +), (fixed: bin -, int +, cont -)
   (8.8s) no symmetry present
presolving (5 rounds: 5 fast, 2 medium, 2 exhaustive):
 910266 deleted vars, 7688 deleted constraints, 0 added constraints, 924422 tightened bounds, 0 added holes, 0 changed sides, 0 changed coefficients
 0 implications, 562 cliques
presolved problem has 1125 variables (1125 bin, 0 int, 0 impl, 0 cont) and 563 constraints
      1 constraints of type <knapsack>
    562 constraints of type <setppc>
Presolving Time: 6.89
transformed 1/1 original solutions to the transformed problem space

 time | node  | left  |LP iter|LP it/n|mem/heur|mdpt |vars |cons |rows |cuts |sepa|confs|strbr|  dualbound   | primalbound  |  gap   | compl. 
p 9.0s|     1 |     0 |     0 |     - |  clique|   0 |1125 | 563 | 563 |   0 |  0 |   0 |   0 | 3.880444e+08 | 6.786392e+05 |  Large | unknown
 17.6s|     1 |     0 | 11780 |     - |  2274M |   0 |1125 | 563 | 563 |   0 |  0 |   0 |   0 | 9.018987e+05 | 6.786392e+05 |  32.90%| unknown
 50.3s|     1 |     0 | 23242 |     - |  2274M |   0 |1125 | 563 | 564 |   1 |  1 |   0 |   0 | 8.255582e+05 | 6.786392e+05 |  21.65%| unknown
 50.3s|     1 |     0 | 23242 |     - |  2274M |   0 |1125 | 563 | 564 |   1 |  1 |   0 |   0 | 8.255582e+05 | 6.786392e+05 |  21.65%| unknown
 51.8s|     1 |     0 | 25777 |     - |  2274M |   0 |1125 | 563 | 565 |   2 |  2 |   0 |   0 | 7.973631e+05 | 6.786392e+05 |  17.49%| unknown
 51.8s|     1 |     0 | 25777 |     - |  2274M |   0 |1125 | 563 | 565 |   2 |  2 |   0 |   0 | 7.973631e+05 | 6.786392e+05 |  17.49%| unknown
 52.5s|     1 |     0 | 27045 |     - |  2274M |   0 |1125 | 563 | 566 |   3 |  3 |   0 |   0 | 7.791905e+05 | 6.786392e+05 |  14.82%| unknown
 52.5s|     1 |     0 | 27045 |     - |  2274M |   0 |1125 | 563 | 565 |   3 |  3 |   0 |   0 | 7.791905e+05 | 6.786392e+05 |  14.82%| unknown
 52.9s|     1 |     0 | 27778 |     - |  2275M |   0 |1125 | 563 | 566 |   4 |  4 |   0 |   0 | 7.690354e+05 | 6.786392e+05 |  13.32%| unknown
 52.9s|     1 |     0 | 27778 |     - |  2275M |   0 |1125 | 563 | 566 |   4 |  4 |   0 |   0 | 7.690354e+05 | 6.786392e+05 |  13.32%| unknown
 53.5s|     1 |     0 | 28958 |     - |  2276M |   0 |1125 | 563 | 567 |   5 |  5 |   0 |   0 | 7.577527e+05 | 6.786392e+05 |  11.66%| unknown
 53.5s|     1 |     0 | 28958 |     - |  2276M |   0 |1125 | 563 | 567 |   5 |  5 |   0 |   0 | 7.577527e+05 | 6.786392e+05 |  11.66%| unknown
 53.9s|     1 |     0 | 29337 |     - |  2278M |   0 |1125 | 563 | 568 |   6 |  6 |   0 |   0 | 7.496765e+05 | 6.786392e+05 |  10.47%| unknown
 53.9s|     1 |     0 | 29337 |     - |  2278M |   0 |1125 | 563 | 568 |   6 |  6 |   0 |   0 | 7.496765e+05 | 6.786392e+05 |  10.47%| unknown
 54.3s|     1 |     0 | 29601 |     - |  2278M |   0 |1125 | 563 | 569 |   7 |  7 |   0 |   0 | 7.441731e+05 | 6.786392e+05 |   9.66%| unknown
 time | node  | left  |LP iter|LP it/n|mem/heur|mdpt |vars |cons |rows |cuts |sepa|confs|strbr|  dualbound   | primalbound  |  gap   | compl. 
 54.3s|     1 |     0 | 29601 |     - |  2278M |   0 |1125 | 563 | 569 |   7 |  7 |   0 |   0 | 7.441731e+05 | 6.786392e+05 |   9.66%| unknown
 54.6s|     1 |     0 | 30077 |     - |  2278M |   0 |1125 | 563 | 570 |   8 |  8 |   0 |   0 | 7.386821e+05 | 6.786392e+05 |   8.85%| unknown
 54.6s|     1 |     0 | 30077 |     - |  2278M |   0 |1125 | 563 | 570 |   8 |  8 |   0 |   0 | 7.386821e+05 | 6.786392e+05 |   8.85%| unknown
 54.9s|     1 |     0 | 30277 |     - |  2278M |   0 |1125 | 563 | 571 |   9 |  9 |   0 |   0 | 7.321006e+05 | 6.786392e+05 |   7.88%| unknown
 54.9s|     1 |     0 | 30277 |     - |  2278M |   0 |1125 | 563 | 571 |   9 |  9 |   0 |   0 | 7.321006e+05 | 6.786392e+05 |   7.88%| unknown
 55.1s|     1 |     0 | 30465 |     - |  2278M |   0 |1125 | 563 | 572 |  10 | 10 |   0 |   0 | 7.250572e+05 | 6.786392e+05 |   6.84%| unknown
 55.1s|     1 |     0 | 30465 |     - |  2278M |   0 |1125 | 563 | 572 |  10 | 10 |   0 |   0 | 7.250572e+05 | 6.786392e+05 |   6.84%| unknown
 55.2s|     1 |     0 | 30674 |     - |  2278M |   0 |1125 | 563 | 573 |  11 | 11 |   0 |   0 | 7.201164e+05 | 6.786392e+05 |   6.11%| unknown
 55.2s|     1 |     0 | 30674 |     - |  2278M |   0 |1125 | 563 | 573 |  11 | 11 |   0 |   0 | 7.201164e+05 | 6.786392e+05 |   6.11%| unknown
 55.3s|     1 |     0 | 30966 |     - |  2278M |   0 |1125 | 563 | 574 |  12 | 12 |   0 |   0 | 7.132136e+05 | 6.786392e+05 |   5.09%| unknown
 55.3s|     1 |     0 | 30966 |     - |  2278M |   0 |1125 | 563 | 574 |  12 | 12 |   0 |   0 | 7.132136e+05 | 6.786392e+05 |   5.09%| unknown
 55.4s|     1 |     0 | 31089 |     - |  2278M |   0 |1125 | 563 | 575 |  13 | 13 |   0 |   0 | 7.079852e+05 | 6.786392e+05 |   4.32%| unknown
 55.4s|     1 |     0 | 31089 |     - |  2278M |   0 |1125 | 563 | 575 |  13 | 13 |   0 |   0 | 7.079852e+05 | 6.786392e+05 |   4.32%| unknown
 55.5s|     1 |     0 | 31258 |     - |  2278M |   0 |1125 | 563 | 576 |  14 | 14 |   0 |   0 | 7.001596e+05 | 6.786392e+05 |   3.17%| unknown
 55.5s|     1 |     0 | 31258 |     - |  2278M |   0 |1125 | 563 | 576 |  14 | 14 |   0 |   0 | 7.001596e+05 | 6.786392e+05 |   3.17%| unknown
 time | node  | left  |LP iter|LP it/n|mem/heur|mdpt |vars |cons |rows |cuts |sepa|confs|strbr|  dualbound   | primalbound  |  gap   | compl. 
 55.6s|     1 |     0 | 31346 |     - |  2278M |   0 |1125 | 563 | 577 |  15 | 15 |   0 |   0 | 6.952192e+05 | 6.786392e+05 |   2.44%| unknown
 55.6s|     1 |     0 | 31346 |     - |  2278M |   0 |1125 | 563 | 577 |  15 | 15 |   0 |   0 | 6.952192e+05 | 6.786392e+05 |   2.44%| unknown
 55.6s|     1 |     0 | 31446 |     - |  2278M |   0 |1125 | 563 | 578 |  16 | 16 |   0 |   0 | 6.898351e+05 | 6.786392e+05 |   1.65%| unknown
 55.7s|     1 |     0 | 31446 |     - |  2278M |   0 |1125 | 563 | 578 |  16 | 16 |   0 |   0 | 6.898351e+05 | 6.786392e+05 |   1.65%| unknown
 55.7s|     1 |     0 | 31484 |     - |  2278M |   0 |1125 | 563 | 579 |  17 | 17 |   0 |   0 | 6.873375e+05 | 6.786392e+05 |   1.28%| unknown
 55.7s|     1 |     0 | 31484 |     - |  2278M |   0 |1125 | 563 | 579 |  17 | 17 |   0 |   0 | 6.873375e+05 | 6.786392e+05 |   1.28%| unknown
 55.8s|     1 |     0 | 31532 |     - |  2278M |   0 |1125 | 563 | 580 |  18 | 18 |   0 |   0 | 6.859040e+05 | 6.786392e+05 |   1.07%| unknown
 55.8s|     1 |     0 | 31532 |     - |  2278M |   0 |1125 | 563 | 580 |  18 | 18 |   0 |   0 | 6.859040e+05 | 6.786392e+05 |   1.07%| unknown
 55.8s|     1 |     0 | 31579 |     - |  2278M |   0 |1125 | 563 | 581 |  19 | 19 |   0 |   0 | 6.826031e+05 | 6.786392e+05 |   0.58%| unknown
 55.8s|     1 |     0 | 31579 |     - |  2278M |   0 |1125 | 563 | 581 |  19 | 19 |   0 |   0 | 6.826031e+05 | 6.786392e+05 |   0.58%| unknown
 55.9s|     1 |     0 | 31580 |     - |  2278M |   0 |1125 | 563 | 582 |  20 | 20 |   0 |   0 | 6.823265e+05 | 6.786392e+05 |   0.54%| unknown
d55.9s|     1 |     0 | 31580 |     - |farkasdi|   0 |1125 | 562 | 582 |   0 | 22 |   0 |   0 | 6.823265e+05 | 6.823265e+05 |   0.00%| unknown
 55.9s|     1 |     0 | 31580 |     - |  2278M |   0 |1125 | 562 | 582 |  20 | 22 |   0 |   0 | 6.823265e+05 | 6.823265e+05 |   0.00%| unknown

SCIP Status        : problem is solved [optimal solution found]
Solving Time (sec) : 55.90
Solving Nodes      : 1
Primal Bound       : +6.82326522669454e+05 (31 solutions)
Dual Bound         : +6.82326522669454e+05
Gap                : 0.00 %
Solve Status: optimal
Solve Time: 56.19 seconds
